ITEM = 1..20;
capacity1 = 174;
capacity2 = 174;
capacity3 = 174;
profits = [33, 30, 39, 47, 20, 32, 104, 20, 73, 39, 80, 23, 30, 20, 104, 25, 25, 48, 65, 68];
weights = [46, 63, 83, 48, 10, 29, 95, 10, 78, 35, 79, 88, 39, 26, 97, 17, 15, 69, 56, 59];
